(declare-fun bvlambda_23_ ()Bool         )
(declare-fun a106 () (Array (_ BitVec 1) (_ BitVec 7)))
(assert
(let (($e8 (_ bv30 10)))
(let (($e22 (_ bv30 7)))
(let (($e157                $e8              ))
(let (($e158 (concat $e157 $e157      )))
(let (($e161 ((_ extract 13 7) $e158)))
(let (($e162 (store a106 true        $e161)))
(let (($e163 (store $e162 bvlambda_23_ $e22)))
(
                 extract(select $e163 true)
                                                                                                                                                                                                                                                                                                                                                                                                                                                                                                                                                                                                                                                                                                                                                                                                                                                                                                                                                                                                                                                                                                                                                                                                                                                                                                                                                                                                                                                                                                                                                                                                                                                                                                                                                                                                                                                                                                                                                                                                                                                                                                                                                                                                                                                                                                                                                                                                                                                                                                                                                                                                                                                                                                                                                                                                                                                                                                                                                                                                                                                             ))))  ))                                                                                               )             )       )
